;  depth   = 3
;  nconst  = 5
;  assertions = 5
;  timeout = 2500
;  time    = {'smt_solvers/QF_S/z3seq/': 0.1245429515838623, 'smt_solvers/QF_S/cvc4/': 0.36685609817504883, 'smt_solvers/QF_S/z3str3fed/': 0.1096038818359375, 'smt_solvers/QF_S/z3str3/': 0.13396358489990234}
;  score   = 0.23289251327514648
;  stdout  = {'smt_solvers/QF_S/z3seq/': 'unsat', 'smt_solvers/QF_S/cvc4/': 'unsat', 'smt_solvers/QF_S/z3str3fed/': 'unsat', 'smt_solvers/QF_S/z3str3/': 'unsat'}
(set-logic QF_S)(declare-fun var0 () String)(declare-fun var1 () String)(declare-fun var2 () String)(declare-fun var3 () String)(declare-fun var4 () String)(declare-fun var5 () Int)(declare-fun var6 () Int)(declare-fun var7 () Int)(declare-fun var8 () Int)(declare-fun var9 () Int)(declare-fun var10 () Bool)(declare-fun var11 () Bool)(declare-fun var12 () Bool)(declare-fun var13 () Bool)(declare-fun var14 () Bool)(assert (str.in.re var1 re.allchar))(assert (> (str.indexof (str.substr var1 var7 var8) (str.replace var0 var0 var4) (str.len var1)) (str.indexof (str.at var2 var7) (str.at var3 var6) (str.len var0))))(assert (str.in.re var3 re.allchar))(assert (< (str.indexof (str.substr var2 var9 var6) (str.at var4 var9) (str.len var2)) (str.indexof (str.replace var3 var2 var0) (str.replace var1 var4 var3) (str.len var0))))(assert (< (str.indexof (str.substr var4 var5 var6) (str.substr var2 var8 7) (str.indexof "#y#NM(L?N4" var2 var8)) (str.indexof var4 var0 4)))(check-sat)